32	0

0	3	2	3	4
8	3	5	6	7
6	3	5	6	7
9	2	5	6
8	2	8	9
5	2	8	9
9	2	8	9
9	1	10
2	1	10
4	2	11	12
10	2	13	14
2	2	13	14
8	1	15
8	1	15
9	3	16	17	19
8	1	18
6	1	18
6	3	20	21	22
10	3	20	21	22
7	2	24	25
2	1	23
1	1	23
2	2	24	25
6	1	26
9	1	26
6	3	27	28	29
6	2	30	31
3	2	30	31
1	2	30	31
8	1	32
9	1	32
0	0
